c clasp version 2.1.1
c Reading from p35.cnf
c Solving...
s SATISFIABLE

c Models        : 1+    
c Time          : 1.678s (Solving: 0.23s 1st Model: 0.23s Unsat: 0.00s)
c CPU Time      : 1.670s
c Choices       : 4345
c Conflicts     : 320
c Restarts      : 0     

c Variables     : 226467 (Eliminated: 70726 Frozen:    0)
c Constraints   : 260957 (Binary: 64.6% Ternary: 34.2% Other:  1.2%)
c Lemmas        : 320    (Binary:  0.3% Ternary:  0.9% Other: 98.8%)
c   Conflict    : 320    (Average Length: 70.1) 
c   Loop        : 0      (Average Length: 0.0) 
c   Other       : 0      (Average Length: 0.0)
c   Deleted     : 0     
